nK = 3274;
nT = 8;
nI = 21;
L = 35;
TT = 666;
np = 1;
nc = 3;
b = [31, 64, 70, 60, 25, 20, 23, 49, 54, 68, 32, 48, 52, 57, 63, 65, 20, 41, 37, 29, 51];
d = [124, 145, 145, 138, 72, 138, 117, 142, 114, 114, 104, 85, 117, 135, 120, 150, 44, 85, 123, 50, 129];
m = [1.8, 2.1, 1, 2.1, 1.7, 1.2, 1.2, 1.4, 2.1, 2.2, 2.2, 1.1, 1.1, 1.2, 2, 2, 1, 2.3, 1.8, 2.4, 2.3];
pt = [0.31, 0.24, 0.21, 0.3, 0.35, 0.2, 0.22, 0.26];
st = [18.6, 9.6, 11.97, 16.2, 19.25, 11.2, 9.46, 10.66];
arc = {<1, 0, 1, 1, 0, 0, 0, [1, 1, 1, 1, 1, 1, 1, 1]>, <2, 1, 2, 1, 0, 0, 0, [1, 1, 1, 1, 1, 1, 1, 1]>, <3, 2, 3, 1, 0, 0, 0, [1, 1, 1, 1, 1, 1, 1, 1]>, <4, 3, 4, 1, 0, 0, 0, [1, 1, 1, 1, 1, 1, 1, 1]>, <5, 4, 5, 1, 0, 0, 0, [1, 1, 1, 1, 1, 1, 1, 1]>, <6, 5, 6, 1, 0, 0, 0, [1, 1, 1, 1, 1, 1, 1, 1]>, <7, 6, 7, 1, 0, 0, 0, [1, 1, 1, 1, 1, 1, 1, 1]>, <8, 7, 8, 1, 0, 0, 0, [1, 1, 1, 1, 1, 1, 1, 1]>, <9, 8, 9, 1, 0, 0, 0, [1, 1, 1, 1, 1, 1, 1, 1]>, <10, 9, 10, 1, 0, 0, 0, [1, 1, 1, 1, 1, 1, 1, 1]>, <11, 10, 11, 1, 0, 0, 0, [1, 1, 1, 1, 1, 1, 1, 1]>, <12, 11, 12, 1, 0, 0, 0, [1, 1, 1, 1, 1, 1, 1, 1]>, <13, 12, 13, 1, 0, 0, 0, [1, 1, 1, 1, 1, 1, 1, 1]>, <14, 13, 14, 1, 0, 0, 0, [1, 1, 1, 1, 1, 1, 1, 1]>, <15, 14, 15, 1, 0, 0, 0, [1, 1, 1, 1, 1, 1, 1, 1]>, <16, 15, 16, 1, 0, 0, 0, [1, 1, 1, 1, 1, 1, 1, 1]>, <17, 16, 17, 1, 0, 0, 0, [1, 1, 1, 1, 1, 1, 1, 1]>, <18, 17, 18, 1, 0, 0, 0, [1, 1, 1, 1, 1, 1, 1, 1]>, <19, 18, 19, 1, 0, 0, 0, [1, 1, 1, 1, 1, 1, 1, 1]>, <20, 19, 20, 1, 0, 0, 0, [1, 1, 1, 1, 1, 1, 1, 1]>, <21, 20, 21, 1, 0, 0, 0, [1, 1, 1, 1, 1, 1, 1, 1]>, <22, 21, 22, 1, 0, 0, 0, [1, 1, 1, 1, 1, 1, 1, 1]>, <23, 22, 23, 1, 0, 0, 0, [1, 1, 1, 1, 1, 1, 1, 1]>, <24, 23, 24, 1, 0, 0, 0, [1, 1, 1, 1, 1, 1, 1, 1]>, <25, 24, 25, 1, 0, 0, 0, [1, 1, 1, 1, 1, 1, 1, 1]>, <26, 25, 26, 1, 0, 0, 0, [1, 1, 1, 1, 1, 1, 1, 1]>, <27, 26, 27, 1, 0, 0, 0, [1, 1, 1, 1, 1, 1, 1, 1]>, <28, 27, 28, 1, 0, 0, 0, [1, 1, 1, 1, 1, 1, 1, 1]>, <29, 28, 29, 1, 0, 0, 0, [1, 1, 1, 1, 1, 1, 1, 1]>, <30, 29, 30, 1, 0, 0, 0, [1, 1, 1, 1, 1, 1, 1, 1]>, <31, 30, 31, 1, 0, 0, 0, [1, 1, 1, 1, 1, 1, 1, 1]>, <32, 31, 32, 1, 0, 0, 0, [1, 1, 1, 1, 1, 1, 1, 1]>, <33, 32, 33, 1, 0, 0, 0, [1, 1, 1, 1, 1, 1, 1, 1]>, <34, 33, 34, 1, 0, 0, 0, [1, 1, 1, 1, 1, 1, 1, 1]>, <35, 34, 35, 1, 0, 0, 0, [1, 1, 1, 1, 1, 1, 1, 1]>, <36, 0, 22, 22, 1, 1, 0, [1, 0, 0, 0, 0, 0, 0, 1]>, <37, 1, 23, 22, 1, 1, 0, [1, 0, 0, 0, 0, 0, 0, 1]>, <38, 2, 24, 22, 1, 1, 0, [1, 0, 0, 0, 0, 0, 0, 1]>, <39, 3, 25, 22, 1, 1, 0, [1, 0, 0, 0, 0, 0, 0, 1]>, <40, 4, 26, 22, 1, 1, 0, [1, 0, 0, 0, 0, 0, 0, 1]>, <41, 5, 27, 22, 1, 1, 0, [1, 0, 0, 0, 0, 0, 0, 1]>, <42, 6, 28, 22, 1, 1, 0, [1, 0, 0, 0, 0, 0, 0, 1]>, <43, 7, 29, 22, 1, 1, 0, [1, 0, 0, 0, 0, 0, 0, 1]>, <44, 8, 30, 22, 1, 1, 0, [1, 0, 0, 0, 0, 0, 0, 1]>, <45, 9, 31, 22, 1, 1, 0, [1, 0, 0, 0, 0, 0, 0, 1]>, <46, 10, 32, 22, 1, 1, 0, [1, 0, 0, 0, 0, 0, 0, 1]>, <47, 11, 33, 22, 1, 1, 0, [1, 0, 0, 0, 0, 0, 0, 1]>, <48, 12, 34, 22, 1, 1, 0, [1, 0, 0, 0, 0, 0, 0, 1]>, <49, 13, 35, 22, 1, 1, 0, [1, 0, 0, 0, 0, 0, 0, 1]>, <50, 0, 19, 19, 2, 0, 1, [0, 0, 0, 1, 1, 0, 0, 0]>, <51, 1, 20, 19, 2, 0, 1, [0, 0, 0, 1, 1, 0, 0, 0]>, <52, 2, 21, 19, 2, 0, 1, [0, 0, 0, 1, 1, 0, 0, 0]>, <53, 3, 22, 19, 2, 0, 1, [0, 0, 0, 1, 1, 0, 0, 0]>, <54, 4, 23, 19, 2, 0, 1, [0, 0, 0, 1, 1, 0, 0, 0]>, <55, 5, 24, 19, 2, 0, 1, [0, 0, 0, 1, 1, 0, 0, 0]>, <56, 6, 25, 19, 2, 0, 1, [0, 0, 0, 1, 1, 0, 0, 0]>, <57, 7, 26, 19, 2, 0, 1, [0, 0, 0, 1, 1, 0, 0, 0]>, <58, 8, 27, 19, 2, 0, 1, [0, 0, 0, 1, 1, 0, 0, 0]>, <59, 9, 28, 19, 2, 0, 1, [0, 0, 0, 1, 1, 0, 0, 0]>, <60, 10, 29, 19, 2, 0, 1, [0, 0, 0, 1, 1, 0, 0, 0]>, <61, 11, 30, 19, 2, 0, 1, [0, 0, 0, 1, 1, 0, 0, 0]>, <62, 12, 31, 19, 2, 0, 1, [0, 0, 0, 1, 1, 0, 0, 0]>, <63, 13, 32, 19, 2, 0, 1, [0, 0, 0, 1, 1, 0, 0, 0]>, <64, 14, 33, 19, 2, 0, 1, [0, 0, 0, 1, 1, 0, 0, 0]>, <65, 15, 34, 19, 2, 0, 1, [0, 0, 0, 1, 1, 0, 0, 0]>, <66, 16, 35, 19, 2, 0, 1, [0, 0, 0, 1, 1, 0, 0, 0]>, <67, 0, 19, 19, 3, 0, 0, [0, 0, 0, 0, 1, 1, 0, 0]>, <68, 1, 20, 19, 3, 0, 0, [0, 0, 0, 0, 1, 1, 0, 0]>, <69, 2, 21, 19, 3, 0, 0, [0, 0, 0, 0, 1, 1, 0, 0]>, <70, 3, 22, 19, 3, 0, 0, [0, 0, 0, 0, 1, 1, 0, 0]>, <71, 4, 23, 19, 3, 0, 0, [0, 0, 0, 0, 1, 1, 0, 0]>, <72, 5, 24, 19, 3, 0, 0, [0, 0, 0, 0, 1, 1, 0, 0]>, <73, 6, 25, 19, 3, 0, 0, [0, 0, 0, 0, 1, 1, 0, 0]>, <74, 7, 26, 19, 3, 0, 0, [0, 0, 0, 0, 1, 1, 0, 0]>, <75, 8, 27, 19, 3, 0, 0, [0, 0, 0, 0, 1, 1, 0, 0]>, <76, 9, 28, 19, 3, 0, 0, [0, 0, 0, 0, 1, 1, 0, 0]>, <77, 10, 29, 19, 3, 0, 0, [0, 0, 0, 0, 1, 1, 0, 0]>, <78, 11, 30, 19, 3, 0, 0, [0, 0, 0, 0, 1, 1, 0, 0]>, <79, 12, 31, 19, 3, 0, 0, [0, 0, 0, 0, 1, 1, 0, 0]>, <80, 13, 32, 19, 3, 0, 0, [0, 0, 0, 0, 1, 1, 0, 0]>, <81, 14, 33, 19, 3, 0, 0, [0, 0, 0, 0, 1, 1, 0, 0]>, <82, 15, 34, 19, 3, 0, 0, [0, 0, 0, 0, 1, 1, 0, 0]>, <83, 16, 35, 19, 3, 0, 0, [0, 0, 0, 0, 1, 1, 0, 0]>, <84, 0, 22, 22, 4, 0, 1, [0, 1, 1, 0, 0, 0, 0, 0]>, <85, 1, 23, 22, 4, 0, 1, [0, 1, 1, 0, 0, 0, 0, 0]>, <86, 2, 24, 22, 4, 0, 1, [0, 1, 1, 0, 0, 0, 0, 0]>, <87, 3, 25, 22, 4, 0, 1, [0, 1, 1, 0, 0, 0, 0, 0]>, <88, 4, 26, 22, 4, 0, 1, [0, 1, 1, 0, 0, 0, 0, 0]>, <89, 5, 27, 22, 4, 0, 1, [0, 1, 1, 0, 0, 0, 0, 0]>, <90, 6, 28, 22, 4, 0, 1, [0, 1, 1, 0, 0, 0, 0, 0]>, <91, 7, 29, 22, 4, 0, 1, [0, 1, 1, 0, 0, 0, 0, 0]>, <92, 8, 30, 22, 4, 0, 1, [0, 1, 1, 0, 0, 0, 0, 0]>, <93, 9, 31, 22, 4, 0, 1, [0, 1, 1, 0, 0, 0, 0, 0]>, <94, 10, 32, 22, 4, 0, 1, [0, 1, 1, 0, 0, 0, 0, 0]>, <95, 11, 33, 22, 4, 0, 1, [0, 1, 1, 0, 0, 0, 0, 0]>, <96, 12, 34, 22, 4, 0, 1, [0, 1, 1, 0, 0, 0, 0, 0]>, <97, 13, 35, 22, 4, 0, 1, [0, 1, 1, 0, 0, 0, 0, 0]>, <98, 0, 21, 21, 5, 0, 1, [0, 0, 0, 0, 0, 1, 1, 0]>, <99, 1, 22, 21, 5, 0, 1, [0, 0, 0, 0, 0, 1, 1, 0]>, <100, 2, 23, 21, 5, 0, 1, [0, 0, 0, 0, 0, 1, 1, 0]>, <101, 3, 24, 21, 5, 0, 1, [0, 0, 0, 0, 0, 1, 1, 0]>, <102, 4, 25, 21, 5, 0, 1, [0, 0, 0, 0, 0, 1, 1, 0]>, <103, 5, 26, 21, 5, 0, 1, [0, 0, 0, 0, 0, 1, 1, 0]>, <104, 6, 27, 21, 5, 0, 1, [0, 0, 0, 0, 0, 1, 1, 0]>, <105, 7, 28, 21, 5, 0, 1, [0, 0, 0, 0, 0, 1, 1, 0]>, <106, 8, 29, 21, 5, 0, 1, [0, 0, 0, 0, 0, 1, 1, 0]>, <107, 9, 30, 21, 5, 0, 1, [0, 0, 0, 0, 0, 1, 1, 0]>, <108, 10, 31, 21, 5, 0, 1, [0, 0, 0, 0, 0, 1, 1, 0]>, <109, 11, 32, 21, 5, 0, 1, [0, 0, 0, 0, 0, 1, 1, 0]>, <110, 12, 33, 21, 5, 0, 1, [0, 0, 0, 0, 0, 1, 1, 0]>, <111, 13, 34, 21, 5, 0, 1, [0, 0, 0, 0, 0, 1, 1, 0]>, <112, 14, 35, 21, 5, 0, 1, [0, 0, 0, 0, 0, 1, 1, 0]>, <113, 0, 22, 22, 6, 0, 1, [0, 0, 1, 1, 0, 0, 0, 0]>, <114, 1, 23, 22, 6, 0, 1, [0, 0, 1, 1, 0, 0, 0, 0]>, <115, 2, 24, 22, 6, 0, 1, [0, 0, 1, 1, 0, 0, 0, 0]>, <116, 3, 25, 22, 6, 0, 1, [0, 0, 1, 1, 0, 0, 0, 0]>, <117, 4, 26, 22, 6, 0, 1, [0, 0, 1, 1, 0, 0, 0, 0]>, <118, 5, 27, 22, 6, 0, 1, [0, 0, 1, 1, 0, 0, 0, 0]>, <119, 6, 28, 22, 6, 0, 1, [0, 0, 1, 1, 0, 0, 0, 0]>, <120, 7, 29, 22, 6, 0, 1, [0, 0, 1, 1, 0, 0, 0, 0]>, <121, 8, 30, 22, 6, 0, 1, [0, 0, 1, 1, 0, 0, 0, 0]>, <122, 9, 31, 22, 6, 0, 1, [0, 0, 1, 1, 0, 0, 0, 0]>, <123, 10, 32, 22, 6, 0, 1, [0, 0, 1, 1, 0, 0, 0, 0]>, <124, 11, 33, 22, 6, 0, 1, [0, 0, 1, 1, 0, 0, 0, 0]>, <125, 12, 34, 22, 6, 0, 1, [0, 0, 1, 1, 0, 0, 0, 0]>, <126, 13, 35, 22, 6, 0, 1, [0, 0, 1, 1, 0, 0, 0, 0]>, <127, 0, 17, 17, 7, 0, 0, [0, 0, 0, 0, 0, 0, 1, 1]>, <128, 1, 18, 17, 7, 0, 0, [0, 0, 0, 0, 0, 0, 1, 1]>, <129, 2, 19, 17, 7, 0, 0, [0, 0, 0, 0, 0, 0, 1, 1]>, <130, 3, 20, 17, 7, 0, 0, [0, 0, 0, 0, 0, 0, 1, 1]>, <131, 4, 21, 17, 7, 0, 0, [0, 0, 0, 0, 0, 0, 1, 1]>, <132, 5, 22, 17, 7, 0, 0, [0, 0, 0, 0, 0, 0, 1, 1]>, <133, 6, 23, 17, 7, 0, 0, [0, 0, 0, 0, 0, 0, 1, 1]>, <134, 9, 26, 17, 7, 0, 0, [0, 0, 0, 0, 0, 0, 1, 1]>, <135, 10, 27, 17, 7, 0, 0, [0, 0, 0, 0, 0, 0, 1, 1]>, <136, 11, 28, 17, 7, 0, 0, [0, 0, 0, 0, 0, 0, 1, 1]>, <137, 12, 29, 17, 7, 0, 0, [0, 0, 0, 0, 0, 0, 1, 1]>, <138, 13, 30, 17, 7, 0, 0, [0, 0, 0, 0, 0, 0, 1, 1]>, <139, 14, 31, 17, 7, 0, 0, [0, 0, 0, 0, 0, 0, 1, 1]>, <140, 15, 32, 17, 7, 0, 0, [0, 0, 0, 0, 0, 0, 1, 1]>, <141, 16, 33, 17, 7, 0, 0, [0, 0, 0, 0, 0, 0, 1, 1]>, <142, 17, 34, 17, 7, 0, 0, [0, 0, 0, 0, 0, 0, 1, 1]>, <143, 18, 35, 17, 7, 0, 0, [0, 0, 0, 0, 0, 0, 1, 1]>, <144, 0, 21, 21, 8, 0, 1, [0, 0, 0, 1, 1, 0, 0, 0]>, <145, 1, 22, 21, 8, 0, 1, [0, 0, 0, 1, 1, 0, 0, 0]>, <146, 2, 23, 21, 8, 0, 1, [0, 0, 0, 1, 1, 0, 0, 0]>, <147, 3, 24, 21, 8, 0, 1, [0, 0, 0, 1, 1, 0, 0, 0]>, <148, 4, 25, 21, 8, 0, 1, [0, 0, 0, 1, 1, 0, 0, 0]>, <149, 5, 26, 21, 8, 0, 1, [0, 0, 0, 1, 1, 0, 0, 0]>, <150, 6, 27, 21, 8, 0, 1, [0, 0, 0, 1, 1, 0, 0, 0]>, <151, 7, 28, 21, 8, 0, 1, [0, 0, 0, 1, 1, 0, 0, 0]>, <152, 8, 29, 21, 8, 0, 1, [0, 0, 0, 1, 1, 0, 0, 0]>, <153, 9, 30, 21, 8, 0, 1, [0, 0, 0, 1, 1, 0, 0, 0]>, <154, 10, 31, 21, 8, 0, 1, [0, 0, 0, 1, 1, 0, 0, 0]>, <155, 11, 32, 21, 8, 0, 1, [0, 0, 0, 1, 1, 0, 0, 0]>, <156, 12, 33, 21, 8, 0, 1, [0, 0, 0, 1, 1, 0, 0, 0]>, <157, 13, 34, 21, 8, 0, 1, [0, 0, 0, 1, 1, 0, 0, 0]>, <158, 14, 35, 21, 8, 0, 1, [0, 0, 0, 1, 1, 0, 0, 0]>, <159, 0, 21, 21, 9, 0, 0, [0, 0, 0, 0, 0, 1, 1, 0]>, <160, 1, 22, 21, 9, 0, 0, [0, 0, 0, 0, 0, 1, 1, 0]>, <161, 2, 23, 21, 9, 0, 0, [0, 0, 0, 0, 0, 1, 1, 0]>, <162, 3, 24, 21, 9, 0, 0, [0, 0, 0, 0, 0, 1, 1, 0]>, <163, 4, 25, 21, 9, 0, 0, [0, 0, 0, 0, 0, 1, 1, 0]>, <164, 5, 26, 21, 9, 0, 0, [0, 0, 0, 0, 0, 1, 1, 0]>, <165, 6, 27, 21, 9, 0, 0, [0, 0, 0, 0, 0, 1, 1, 0]>, <166, 7, 28, 21, 9, 0, 0, [0, 0, 0, 0, 0, 1, 1, 0]>, <167, 8, 29, 21, 9, 0, 0, [0, 0, 0, 0, 0, 1, 1, 0]>, <168, 9, 30, 21, 9, 0, 0, [0, 0, 0, 0, 0, 1, 1, 0]>, <169, 10, 31, 21, 9, 0, 0, [0, 0, 0, 0, 0, 1, 1, 0]>, <170, 11, 32, 21, 9, 0, 0, [0, 0, 0, 0, 0, 1, 1, 0]>, <171, 12, 33, 21, 9, 0, 0, [0, 0, 0, 0, 0, 1, 1, 0]>, <172, 13, 34, 21, 9, 0, 0, [0, 0, 0, 0, 0, 1, 1, 0]>, <173, 14, 35, 21, 9, 0, 0, [0, 0, 0, 0, 0, 1, 1, 0]>, <174, 0, 21, 21, 10, 0, 0, [0, 0, 1, 1, 0, 0, 0, 0]>, <175, 1, 22, 21, 10, 0, 0, [0, 0, 1, 1, 0, 0, 0, 0]>, <176, 2, 23, 21, 10, 0, 0, [0, 0, 1, 1, 0, 0, 0, 0]>, <177, 3, 24, 21, 10, 0, 0, [0, 0, 1, 1, 0, 0, 0, 0]>, <178, 4, 25, 21, 10, 0, 0, [0, 0, 1, 1, 0, 0, 0, 0]>, <179, 5, 26, 21, 10, 0, 0, [0, 0, 1, 1, 0, 0, 0, 0]>, <180, 6, 27, 21, 10, 0, 0, [0, 0, 1, 1, 0, 0, 0, 0]>, <181, 7, 28, 21, 10, 0, 0, [0, 0, 1, 1, 0, 0, 0, 0]>, <182, 8, 29, 21, 10, 0, 0, [0, 0, 1, 1, 0, 0, 0, 0]>, <183, 9, 30, 21, 10, 0, 0, [0, 0, 1, 1, 0, 0, 0, 0]>, <184, 10, 31, 21, 10, 0, 0, [0, 0, 1, 1, 0, 0, 0, 0]>, <185, 11, 32, 21, 10, 0, 0, [0, 0, 1, 1, 0, 0, 0, 0]>, <186, 12, 33, 21, 10, 0, 0, [0, 0, 1, 1, 0, 0, 0, 0]>, <187, 13, 34, 21, 10, 0, 0, [0, 0, 1, 1, 0, 0, 0, 0]>, <188, 14, 35, 21, 10, 0, 0, [0, 0, 1, 1, 0, 0, 0, 0]>, <189, 0, 18, 18, 11, 1, 0, [0, 0, 0, 1, 1, 0, 0, 0]>, <190, 1, 19, 18, 11, 1, 0, [0, 0, 0, 1, 1, 0, 0, 0]>, <191, 2, 20, 18, 11, 1, 0, [0, 0, 0, 1, 1, 0, 0, 0]>, <192, 3, 21, 18, 11, 1, 0, [0, 0, 0, 1, 1, 0, 0, 0]>, <193, 4, 22, 18, 11, 1, 0, [0, 0, 0, 1, 1, 0, 0, 0]>, <194, 5, 23, 18, 11, 1, 0, [0, 0, 0, 1, 1, 0, 0, 0]>, <195, 6, 24, 18, 11, 1, 0, [0, 0, 0, 1, 1, 0, 0, 0]>, <196, 8, 26, 18, 11, 1, 0, [0, 0, 0, 1, 1, 0, 0, 0]>, <197, 9, 27, 18, 11, 1, 0, [0, 0, 0, 1, 1, 0, 0, 0]>, <198, 10, 28, 18, 11, 1, 0, [0, 0, 0, 1, 1, 0, 0, 0]>, <199, 11, 29, 18, 11, 1, 0, [0, 0, 0, 1, 1, 0, 0, 0]>, <200, 12, 30, 18, 11, 1, 0, [0, 0, 0, 1, 1, 0, 0, 0]>, <201, 13, 31, 18, 11, 1, 0, [0, 0, 0, 1, 1, 0, 0, 0]>, <202, 14, 32, 18, 11, 1, 0, [0, 0, 0, 1, 1, 0, 0, 0]>, <203, 15, 33, 18, 11, 1, 0, [0, 0, 0, 1, 1, 0, 0, 0]>, <204, 16, 34, 18, 11, 1, 0, [0, 0, 0, 1, 1, 0, 0, 0]>, <205, 17, 35, 18, 11, 1, 0, [0, 0, 0, 1, 1, 0, 0, 0]>, <206, 0, 21, 21, 12, 0, 1, [0, 0, 0, 0, 0, 1, 1, 0]>, <207, 1, 22, 21, 12, 0, 1, [0, 0, 0, 0, 0, 1, 1, 0]>, <208, 2, 23, 21, 12, 0, 1, [0, 0, 0, 0, 0, 1, 1, 0]>, <209, 3, 24, 21, 12, 0, 1, [0, 0, 0, 0, 0, 1, 1, 0]>, <210, 4, 25, 21, 12, 0, 1, [0, 0, 0, 0, 0, 1, 1, 0]>, <211, 5, 26, 21, 12, 0, 1, [0, 0, 0, 0, 0, 1, 1, 0]>, <212, 6, 27, 21, 12, 0, 1, [0, 0, 0, 0, 0, 1, 1, 0]>, <213, 7, 28, 21, 12, 0, 1, [0, 0, 0, 0, 0, 1, 1, 0]>, <214, 8, 29, 21, 12, 0, 1, [0, 0, 0, 0, 0, 1, 1, 0]>, <215, 9, 30, 21, 12, 0, 1, [0, 0, 0, 0, 0, 1, 1, 0]>, <216, 10, 31, 21, 12, 0, 1, [0, 0, 0, 0, 0, 1, 1, 0]>, <217, 11, 32, 21, 12, 0, 1, [0, 0, 0, 0, 0, 1, 1, 0]>, <218, 12, 33, 21, 12, 0, 1, [0, 0, 0, 0, 0, 1, 1, 0]>, <219, 13, 34, 21, 12, 0, 1, [0, 0, 0, 0, 0, 1, 1, 0]>, <220, 14, 35, 21, 12, 0, 1, [0, 0, 0, 0, 0, 1, 1, 0]>, <221, 0, 17, 17, 13, 0, 0, [1, 0, 0, 0, 0, 0, 0, 1]>, <222, 1, 18, 17, 13, 0, 0, [1, 0, 0, 0, 0, 0, 0, 1]>, <223, 2, 19, 17, 13, 0, 0, [1, 0, 0, 0, 0, 0, 0, 1]>, <224, 3, 20, 17, 13, 0, 0, [1, 0, 0, 0, 0, 0, 0, 1]>, <225, 4, 21, 17, 13, 0, 0, [1, 0, 0, 0, 0, 0, 0, 1]>, <226, 5, 22, 17, 13, 0, 0, [1, 0, 0, 0, 0, 0, 0, 1]>, <227, 6, 23, 17, 13, 0, 0, [1, 0, 0, 0, 0, 0, 0, 1]>, <228, 9, 26, 17, 13, 0, 0, [1, 0, 0, 0, 0, 0, 0, 1]>, <229, 10, 27, 17, 13, 0, 0, [1, 0, 0, 0, 0, 0, 0, 1]>, <230, 11, 28, 17, 13, 0, 0, [1, 0, 0, 0, 0, 0, 0, 1]>, <231, 12, 29, 17, 13, 0, 0, [1, 0, 0, 0, 0, 0, 0, 1]>, <232, 13, 30, 17, 13, 0, 0, [1, 0, 0, 0, 0, 0, 0, 1]>, <233, 14, 31, 17, 13, 0, 0, [1, 0, 0, 0, 0, 0, 0, 1]>, <234, 15, 32, 17, 13, 0, 0, [1, 0, 0, 0, 0, 0, 0, 1]>, <235, 16, 33, 17, 13, 0, 0, [1, 0, 0, 0, 0, 0, 0, 1]>, <236, 17, 34, 17, 13, 0, 0, [1, 0, 0, 0, 0, 0, 0, 1]>, <237, 18, 35, 17, 13, 0, 0, [1, 0, 0, 0, 0, 0, 0, 1]>, <238, 0, 19, 19, 14, 0, 0, [0, 0, 1, 1, 0, 0, 0, 0]>, <239, 1, 20, 19, 14, 0, 0, [0, 0, 1, 1, 0, 0, 0, 0]>, <240, 2, 21, 19, 14, 0, 0, [0, 0, 1, 1, 0, 0, 0, 0]>, <241, 3, 22, 19, 14, 0, 0, [0, 0, 1, 1, 0, 0, 0, 0]>, <242, 4, 23, 19, 14, 0, 0, [0, 0, 1, 1, 0, 0, 0, 0]>, <243, 5, 24, 19, 14, 0, 0, [0, 0, 1, 1, 0, 0, 0, 0]>, <244, 6, 25, 19, 14, 0, 0, [0, 0, 1, 1, 0, 0, 0, 0]>, <245, 7, 26, 19, 14, 0, 0, [0, 0, 1, 1, 0, 0, 0, 0]>, <246, 8, 27, 19, 14, 0, 0, [0, 0, 1, 1, 0, 0, 0, 0]>, <247, 9, 28, 19, 14, 0, 0, [0, 0, 1, 1, 0, 0, 0, 0]>, <248, 10, 29, 19, 14, 0, 0, [0, 0, 1, 1, 0, 0, 0, 0]>, <249, 11, 30, 19, 14, 0, 0, [0, 0, 1, 1, 0, 0, 0, 0]>, <250, 12, 31, 19, 14, 0, 0, [0, 0, 1, 1, 0, 0, 0, 0]>, <251, 13, 32, 19, 14, 0, 0, [0, 0, 1, 1, 0, 0, 0, 0]>, <252, 14, 33, 19, 14, 0, 0, [0, 0, 1, 1, 0, 0, 0, 0]>, <253, 15, 34, 19, 14, 0, 0, [0, 0, 1, 1, 0, 0, 0, 0]>, <254, 16, 35, 19, 14, 0, 0, [0, 0, 1, 1, 0, 0, 0, 0]>, <255, 0, 22, 22, 15, 0, 1, [0, 0, 0, 0, 1, 1, 0, 0]>, <256, 1, 23, 22, 15, 0, 1, [0, 0, 0, 0, 1, 1, 0, 0]>, <257, 2, 24, 22, 15, 0, 1, [0, 0, 0, 0, 1, 1, 0, 0]>, <258, 3, 25, 22, 15, 0, 1, [0, 0, 0, 0, 1, 1, 0, 0]>, <259, 4, 26, 22, 15, 0, 1, [0, 0, 0, 0, 1, 1, 0, 0]>, <260, 5, 27, 22, 15, 0, 1, [0, 0, 0, 0, 1, 1, 0, 0]>, <261, 6, 28, 22, 15, 0, 1, [0, 0, 0, 0, 1, 1, 0, 0]>, <262, 7, 29, 22, 15, 0, 1, [0, 0, 0, 0, 1, 1, 0, 0]>, <263, 8, 30, 22, 15, 0, 1, [0, 0, 0, 0, 1, 1, 0, 0]>, <264, 9, 31, 22, 15, 0, 1, [0, 0, 0, 0, 1, 1, 0, 0]>, <265, 10, 32, 22, 15, 0, 1, [0, 0, 0, 0, 1, 1, 0, 0]>, <266, 11, 33, 22, 15, 0, 1, [0, 0, 0, 0, 1, 1, 0, 0]>, <267, 12, 34, 22, 15, 0, 1, [0, 0, 0, 0, 1, 1, 0, 0]>, <268, 13, 35, 22, 15, 0, 1, [0, 0, 0, 0, 1, 1, 0, 0]>, <269, 0, 21, 21, 16, 0, 0, [0, 1, 1, 0, 0, 0, 0, 0]>, <270, 1, 22, 21, 16, 0, 0, [0, 1, 1, 0, 0, 0, 0, 0]>, <271, 2, 23, 21, 16, 0, 0, [0, 1, 1, 0, 0, 0, 0, 0]>, <272, 3, 24, 21, 16, 0, 0, [0, 1, 1, 0, 0, 0, 0, 0]>, <273, 4, 25, 21, 16, 0, 0, [0, 1, 1, 0, 0, 0, 0, 0]>, <274, 5, 26, 21, 16, 0, 0, [0, 1, 1, 0, 0, 0, 0, 0]>, <275, 6, 27, 21, 16, 0, 0, [0, 1, 1, 0, 0, 0, 0, 0]>, <276, 7, 28, 21, 16, 0, 0, [0, 1, 1, 0, 0, 0, 0, 0]>, <277, 8, 29, 21, 16, 0, 0, [0, 1, 1, 0, 0, 0, 0, 0]>, <278, 9, 30, 21, 16, 0, 0, [0, 1, 1, 0, 0, 0, 0, 0]>, <279, 10, 31, 21, 16, 0, 0, [0, 1, 1, 0, 0, 0, 0, 0]>, <280, 11, 32, 21, 16, 0, 0, [0, 1, 1, 0, 0, 0, 0, 0]>, <281, 12, 33, 21, 16, 0, 0, [0, 1, 1, 0, 0, 0, 0, 0]>, <282, 13, 34, 21, 16, 0, 0, [0, 1, 1, 0, 0, 0, 0, 0]>, <283, 14, 35, 21, 16, 0, 0, [0, 1, 1, 0, 0, 0, 0, 0]>, <284, 0, 22, 22, 17, 0, 0, [0, 0, 0, 0, 0, 1, 1, 0]>, <285, 1, 23, 22, 17, 0, 0, [0, 0, 0, 0, 0, 1, 1, 0]>, <286, 2, 24, 22, 17, 0, 0, [0, 0, 0, 0, 0, 1, 1, 0]>, <287, 3, 25, 22, 17, 0, 0, [0, 0, 0, 0, 0, 1, 1, 0]>, <288, 4, 26, 22, 17, 0, 0, [0, 0, 0, 0, 0, 1, 1, 0]>, <289, 5, 27, 22, 17, 0, 0, [0, 0, 0, 0, 0, 1, 1, 0]>, <290, 6, 28, 22, 17, 0, 0, [0, 0, 0, 0, 0, 1, 1, 0]>, <291, 7, 29, 22, 17, 0, 0, [0, 0, 0, 0, 0, 1, 1, 0]>, <292, 8, 30, 22, 17, 0, 0, [0, 0, 0, 0, 0, 1, 1, 0]>, <293, 9, 31, 22, 17, 0, 0, [0, 0, 0, 0, 0, 1, 1, 0]>, <294, 10, 32, 22, 17, 0, 0, [0, 0, 0, 0, 0, 1, 1, 0]>, <295, 11, 33, 22, 17, 0, 0, [0, 0, 0, 0, 0, 1, 1, 0]>, <296, 12, 34, 22, 17, 0, 0, [0, 0, 0, 0, 0, 1, 1, 0]>, <297, 13, 35, 22, 17, 0, 0, [0, 0, 0, 0, 0, 1, 1, 0]>, <298, 0, 22, 22, 18, 0, 0, [0, 0, 0, 0, 1, 1, 0, 0]>, <299, 1, 23, 22, 18, 0, 0, [0, 0, 0, 0, 1, 1, 0, 0]>, <300, 2, 24, 22, 18, 0, 0, [0, 0, 0, 0, 1, 1, 0, 0]>, <301, 3, 25, 22, 18, 0, 0, [0, 0, 0, 0, 1, 1, 0, 0]>, <302, 4, 26, 22, 18, 0, 0, [0, 0, 0, 0, 1, 1, 0, 0]>, <303, 5, 27, 22, 18, 0, 0, [0, 0, 0, 0, 1, 1, 0, 0]>, <304, 6, 28, 22, 18, 0, 0, [0, 0, 0, 0, 1, 1, 0, 0]>, <305, 7, 29, 22, 18, 0, 0, [0, 0, 0, 0, 1, 1, 0, 0]>, <306, 8, 30, 22, 18, 0, 0, [0, 0, 0, 0, 1, 1, 0, 0]>, <307, 9, 31, 22, 18, 0, 0, [0, 0, 0, 0, 1, 1, 0, 0]>, <308, 10, 32, 22, 18, 0, 0, [0, 0, 0, 0, 1, 1, 0, 0]>, <309, 11, 33, 22, 18, 0, 0, [0, 0, 0, 0, 1, 1, 0, 0]>, <310, 12, 34, 22, 18, 0, 0, [0, 0, 0, 0, 1, 1, 0, 0]>, <311, 13, 35, 22, 18, 0, 0, [0, 0, 0, 0, 1, 1, 0, 0]>, <312, 0, 17, 17, 19, 1, 0, [0, 0, 0, 1, 1, 0, 0, 0]>, <313, 1, 18, 17, 19, 1, 0, [0, 0, 0, 1, 1, 0, 0, 0]>, <314, 2, 19, 17, 19, 1, 0, [0, 0, 0, 1, 1, 0, 0, 0]>, <315, 3, 20, 17, 19, 1, 0, [0, 0, 0, 1, 1, 0, 0, 0]>, <316, 4, 21, 17, 19, 1, 0, [0, 0, 0, 1, 1, 0, 0, 0]>, <317, 5, 22, 17, 19, 1, 0, [0, 0, 0, 1, 1, 0, 0, 0]>, <318, 6, 23, 17, 19, 1, 0, [0, 0, 0, 1, 1, 0, 0, 0]>, <319, 9, 26, 17, 19, 1, 0, [0, 0, 0, 1, 1, 0, 0, 0]>, <320, 10, 27, 17, 19, 1, 0, [0, 0, 0, 1, 1, 0, 0, 0]>, <321, 11, 28, 17, 19, 1, 0, [0, 0, 0, 1, 1, 0, 0, 0]>, <322, 12, 29, 17, 19, 1, 0, [0, 0, 0, 1, 1, 0, 0, 0]>, <323, 13, 30, 17, 19, 1, 0, [0, 0, 0, 1, 1, 0, 0, 0]>, <324, 14, 31, 17, 19, 1, 0, [0, 0, 0, 1, 1, 0, 0, 0]>, <325, 15, 32, 17, 19, 1, 0, [0, 0, 0, 1, 1, 0, 0, 0]>, <326, 16, 33, 17, 19, 1, 0, [0, 0, 0, 1, 1, 0, 0, 0]>, <327, 17, 34, 17, 19, 1, 0, [0, 0, 0, 1, 1, 0, 0, 0]>, <328, 18, 35, 17, 19, 1, 0, [0, 0, 0, 1, 1, 0, 0, 0]>, <329, 0, 17, 17, 20, 0, 1, [0, 1, 1, 0, 0, 0, 0, 0]>, <330, 1, 18, 17, 20, 0, 1, [0, 1, 1, 0, 0, 0, 0, 0]>, <331, 2, 19, 17, 20, 0, 1, [0, 1, 1, 0, 0, 0, 0, 0]>, <332, 3, 20, 17, 20, 0, 1, [0, 1, 1, 0, 0, 0, 0, 0]>, <333, 4, 21, 17, 20, 0, 1, [0, 1, 1, 0, 0, 0, 0, 0]>, <334, 5, 22, 17, 20, 0, 1, [0, 1, 1, 0, 0, 0, 0, 0]>, <335, 6, 23, 17, 20, 0, 1, [0, 1, 1, 0, 0, 0, 0, 0]>, <336, 9, 26, 17, 20, 0, 1, [0, 1, 1, 0, 0, 0, 0, 0]>, <337, 10, 27, 17, 20, 0, 1, [0, 1, 1, 0, 0, 0, 0, 0]>, <338, 11, 28, 17, 20, 0, 1, [0, 1, 1, 0, 0, 0, 0, 0]>, <339, 12, 29, 17, 20, 0, 1, [0, 1, 1, 0, 0, 0, 0, 0]>, <340, 13, 30, 17, 20, 0, 1, [0, 1, 1, 0, 0, 0, 0, 0]>, <341, 14, 31, 17, 20, 0, 1, [0, 1, 1, 0, 0, 0, 0, 0]>, <342, 15, 32, 17, 20, 0, 1, [0, 1, 1, 0, 0, 0, 0, 0]>, <343, 16, 33, 17, 20, 0, 1, [0, 1, 1, 0, 0, 0, 0, 0]>, <344, 17, 34, 17, 20, 0, 1, [0, 1, 1, 0, 0, 0, 0, 0]>, <345, 18, 35, 17, 20, 0, 1, [0, 1, 1, 0, 0, 0, 0, 0]>, <346, 0, 22, 22, 21, 0, 0, [1, 1, 0, 0, 0, 0, 0, 0]>, <347, 1, 23, 22, 21, 0, 0, [1, 1, 0, 0, 0, 0, 0, 0]>, <348, 2, 24, 22, 21, 0, 0, [1, 1, 0, 0, 0, 0, 0, 0]>, <349, 3, 25, 22, 21, 0, 0, [1, 1, 0, 0, 0, 0, 0, 0]>, <350, 4, 26, 22, 21, 0, 0, [1, 1, 0, 0, 0, 0, 0, 0]>, <351, 5, 27, 22, 21, 0, 0, [1, 1, 0, 0, 0, 0, 0, 0]>, <352, 6, 28, 22, 21, 0, 0, [1, 1, 0, 0, 0, 0, 0, 0]>, <353, 7, 29, 22, 21, 0, 0, [1, 1, 0, 0, 0, 0, 0, 0]>, <354, 8, 30, 22, 21, 0, 0, [1, 1, 0, 0, 0, 0, 0, 0]>, <355, 9, 31, 22, 21, 0, 0, [1, 1, 0, 0, 0, 0, 0, 0]>, <356, 10, 32, 22, 21, 0, 0, [1, 1, 0, 0, 0, 0, 0, 0]>, <357, 11, 33, 22, 21, 0, 0, [1, 1, 0, 0, 0, 0, 0, 0]>, <358, 12, 34, 22, 21, 0, 0, [1, 1, 0, 0, 0, 0, 0, 0]>, <359, 13, 35, 22, 21, 0, 0, [1, 1, 0, 0, 0, 0, 0, 0]>};
